c Maximum weighted clique instances generated from exactcolors.
c cutoff: 195225786.
c A clique of value > scalef (195225786) defines an improving stable sets for coloring.
p edge 11 35
e 1 3
e 1 5
e 1 6
e 1 8
e 1 10
e 1 11
e 2 4
e 2 5
e 2 7
e 2 9
e 2 10
e 2 11
e 3 4
e 3 6
e 3 8
e 3 9
e 3 11
e 4 7
e 4 8
e 4 9
e 4 11
e 5 6
e 5 7
e 5 10
e 5 11
e 6 7
e 6 8
e 6 9
e 6 10
e 7 8
e 7 9
e 7 10
e 8 9
e 8 10
e 9 10
n 1 58567735
n 2 58567735
n 3 58567735
n 4 58567735
n 5 58567735
n 6 39045157
n 7 39045157
n 8 39045157
n 9 39045157
n 10 39045157
n 11 78090314
